data/CVRPLIB/Vrp-Set-XML100/instances/XML100_3116_03.vrp
NAME : XML100_3116_03
COMMENT : Generated by Queiroga, Sadykov, Uchoa, and Vidal (2021)
TYPE : CVRP
DIMENSION : 101
EDGE_WEIGHT_TYPE : EUC_2D
CAPACITY : 46
NODE_COORD_SECTION
1    0    0   
2    125  999 
3    842  465 
4    689  801 
5    690  371 
6    289  928 
7    120  416 
8    737  350 
9    739  279 
10   30   593 
11   130  997 
12   389  223 
13   940  481 
14   110  197 
15   400  969 
16   787  580 
17   479  79  
18   45   603 
19   668  782 
20   959  281 
21   840  230 
22   578  974 
23   711  148 
24   493  675 
25   247  790 
26   385  375 
27   893  981 
28   99   700 
29   849  809 
30   449  443 
31   806  928 
32   881  266 
33   550  64  
34   3    702 
35   228  885 
36   645  201 
37   925  647 
38   27   335 
39   701  750 
40   594  838 
41   986  433 
42   681  979 
43   493  896 
44   239  945 
45   734  791 
46   813  293 
47   327  249 
48   905  810 
49   627  291 
50   336  307 
51   228  446 
52   578  551 
53   407  842 
54   472  858 
55   907  189 
56   417  18  
57   81   821 
58   551  714 
59   468  901 
60   885  388 
61   17   260 
62   432  844 
63   668  159 
64   962  307 
65   526  452 
66   929  773 
67   557  885 
68   761  466 
69   928  696 
70   673  46  
71   118  430 
72   705  978 
73   120  353 
74   667  608 
75   463  150 
76   812  154 
77   76   453 
78   660  392 
79   748  824 
80   882  618 
81   551  672 
82   472  380 
83   962  545 
84   217  871 
85   40   606 
86   50   147 
87   591  137 
88   464  601 
89   258  964 
90   204  990 
91   986  664 
92   809  374 
93   829  458 
94   886  334 
95   883  604 
96   473  147 
97   574  824 
98   673  154 
99   59   331 
100  914  479 
101  333  637 
DEMAND_SECTION
1    0   
2    1   
3    1   
4    1   
5    1   
6    1   
7    1   
8    1   
9    1   
10   1   
11   1   
12   1   
13   1   
14   1   
15   1   
16   1   
17   1   
18   1   
19   1   
20   1   
21   1   
22   1   
23   1   
24   1   
25   1   
26   1   
27   1   
28   1   
29   1   
30   1   
31   1   
32   1   
33   1   
34   1   
35   1   
36   1   
37   1   
38   1   
39   1   
40   1   
41   1   
42   1   
43   1   
44   1   
45   1   
46   1   
47   1   
48   1   
49   1   
50   1   
51   1   
52   1   
53   1   
54   1   
55   1   
56   1   
57   1   
58   1   
59   1   
60   1   
61   1   
62   1   
63   1   
64   1   
65   1   
66   1   
67   1   
68   1   
69   1   
70   1   
71   1   
72   1   
73   1   
74   1   
75   1   
76   1   
77   1   
78   1   
79   1   
80   1   
81   1   
82   1   
83   1   
84   1   
85   1   
86   1   
87   1   
88   1   
89   1   
90   1   
91   1   
92   1   
93   1   
94   1   
95   1   
96   1   
97   1   
98   1   
99   1   
100  1   
101  1   
DEPOT_SECTION
1
-1
EOF
