data/CVRPLIB/Vrp-Set-XML100/solutions/XML100_3116_03.sol
Route #1: 60 37 98 70 6 72 13 85
Route #2: 11 25 81 29 64 51 73 15 94 79 36 68 90 82 40 12 99 2 92 67 91 59 93 63 19 31 54 75 20 45 8 7 4 77 48 35 62 97 22 69 86 32 95 74 16 55
Route #3: 46 49 50 100 87 23 80 57 96 39 18 3 38 44 78 28 65 47 26 30 71 41 21 66 42 58 53 61 52 14 5 88 43 89 10 1 34 83 24 56 27 33 84 17 9 76
Cost 9629
